NAME 
ROWS
 N  OBJ
 L  R0      
 L  R1      
 E  R2      
 E  R3      
 E  R4      
 E  R5      
 E  R6      
 E  R7      
 E  R8      
 E  R9      
 E  R10     
 E  R11     
 E  R12     
 E  R13     
 E  R14     
 E  R15     
 E  R16     
 E  R17     
 E  R18     
 E  R19     
 E  R20     
 E  R21     
 E  R22     
 E  R23     
 E  R24     
 E  R25     
 E  R26     
COLUMNS
    MARKER    'MARKER'                 'INTORG'
    I0(11)    OBJ       90
    I0(11)    R0        161
    I0(11)    R1        -199
    I0(11)    R2        10
    I0(11)    R4        -1
    I0(11)    R5        -1
    I0(11)    R6        19
    I0(11)    R7        6
    I0(11)    R8        6
    I0(11)    R9        19
    I0(11)    R10       6
    I0(11)    R26       1
    I1(7)     OBJ       15
    I1(7)     R0        199
    I1(7)     R1        63
    I1(7)     R3        8
    I1(7)     R8        16
    I1(7)     R10       2
    I1(7)     R13       4
    I1(7)     R26       1
    I2(11)    OBJ       69
    I2(11)    R1        195
    I2(11)    R2        8
    I2(11)    R3        7
    I2(11)    R4        14
    I2(11)    R6        2
    I2(11)    R8        6
    I2(11)    R9        11
    I2(11)    R10       17
    I2(11)    R11       13
    I2(11)    R13       18
    I2(11)    R26       1
    I3(11)    OBJ       -82
    I3(11)    R0        176
    I3(11)    R1        -130
    I3(11)    R2        16
    I3(11)    R3        -1
    I3(11)    R6        17
    I3(11)    R7        10
    I3(11)    R9        8
    I3(11)    R10       5
    I3(11)    R11       8
    I3(11)    R13       16
    I3(11)    R26       1
    I4(10)    OBJ       -15
    I4(10)    R0        69
    I4(10)    R1        98
    I4(10)    R4        1
    I4(10)    R5        1
    I4(10)    R7        18
    I4(10)    R8        5
    I4(10)    R9        -1
    I4(10)    R11       14
    I4(10)    R12       11
    I4(10)    R26       1
    I5(12)    OBJ       88
    I5(12)    R0        8
    I5(12)    R1        82
    I5(12)    R2        11
    I5(12)    R3        2
    I5(12)    R4        8
    I5(12)    R5        12
    I5(12)    R6        -1
    I5(12)    R7        6
    I5(12)    R8        9
    I5(12)    R9        17
    I5(12)    R11       19
    I5(12)    R26       1
    I6(9)     OBJ       82
    I6(9)     R0        167
    I6(9)     R1        -148
    I6(9)     R2        8
    I6(9)     R5        7
    I6(9)     R6        10
    I6(9)     R9        12
    I6(9)     R11       4
    I6(9)     R13       8
    I6(9)     R26       1
    I7(13)    OBJ       -190
    I7(13)    R0        -42
    I7(13)    R1        -113
    I7(13)    R2        17
    I7(13)    R4        6
    I7(13)    R5        7
    I7(13)    R6        2
    I7(13)    R7        4
    I7(13)    R8        1
    I7(13)    R10       9
    I7(13)    R11       4
    I7(13)    R12       14
    I7(13)    R13       6
    I7(13)    R26       1
    I8(13)    OBJ       97
    I8(13)    R0        -112
    I8(13)    R1        73
    I8(13)    R2        8
    I8(13)    R4        17
    I8(13)    R6        1
    I8(13)    R7        17
    I8(13)    R8        8
    I8(13)    R9        17
    I8(13)    R10       12
    I8(13)    R11       12
    I8(13)    R12       4
    I8(13)    R13       4
    I8(13)    R26       1
    I9(10)    OBJ       18
    I9(10)    R0        -189
    I9(10)    R1        44
    I9(10)    R2        14
    I9(10)    R5        3
    I9(10)    R6        8
    I9(10)    R8        1
    I9(10)    R10       5
    I9(10)    R11       11
    I9(10)    R13       15
    I9(10)    R26       1
    I10(11)   OBJ       -118
    I10(11)   R0        1
    I10(11)   R1        -55
    I10(11)   R2        -1
    I10(11)   R4        11
    I10(11)   R5        15
    I10(11)   R9        16
    I10(11)   R10       5
    I10(11)   R11       10
    I10(11)   R12       13
    I10(11)   R13       16
    I10(11)   R26       1
    I11(12)   OBJ       73
    I11(12)   R0        -199
    I11(12)   R1        163
    I11(12)   R2        16
    I11(12)   R4        12
    I11(12)   R5        -1
    I11(12)   R6        12
    I11(12)   R8        3
    I11(12)   R9        19
    I11(12)   R10       12
    I11(12)   R11       11
    I11(12)   R13       6
    I11(12)   R26       1
    MARKER    'MARKER'                 'INTEND'
    C12(17)   OBJ       6
    C12(17)   R0        -1
    C12(17)   R1        -6
    C12(17)   R3        12
    C12(17)   R4        16
    C12(17)   R5        11
    C12(17)   R6        11
    C12(17)   R11       2
    C12(17)   R12       16
    C12(17)   R13       13
    C12(17)   R14       11
    C12(17)   R15       16
    C12(17)   R18       12
    C12(17)   R20       17
    C12(17)   R21       8
    C12(17)   R22       16
    C12(17)   R24       6
    C12(17)   R25       9
    C13(17)   OBJ       -10
    C13(17)   R0        2
    C13(17)   R1        -3
    C13(17)   R4        10
    C13(17)   R5        10
    C13(17)   R6        14
    C13(17)   R7        5
    C13(17)   R8        16
    C13(17)   R10       16
    C13(17)   R11       3
    C13(17)   R12       15
    C13(17)   R14       19
    C13(17)   R15       -1
    C13(17)   R17       8
    C13(17)   R18       7
    C13(17)   R19       15
    C13(17)   R22       11
    C13(17)   R23       4
    C14(19)   OBJ       4
    C14(19)   R0        -8
    C14(19)   R1        -1
    C14(19)   R4        16
    C14(19)   R6        14
    C14(19)   R8        -1
    C14(19)   R10       11
    C14(19)   R11       2
    C14(19)   R12       6
    C14(19)   R13       5
    C14(19)   R14       10
    C14(19)   R15       1
    C14(19)   R17       14
    C14(19)   R18       10
    C14(19)   R19       10
    C14(19)   R20       14
    C14(19)   R21       -1
    C14(19)   R22       7
    C14(19)   R24       10
    C14(19)   R25       19
    C15(15)   OBJ       -1
    C15(15)   R0        1
    C15(15)   R1        5
    C15(15)   R4        14
    C15(15)   R5        7
    C15(15)   R6        7
    C15(15)   R7        12
    C15(15)   R8        3
    C15(15)   R11       8
    C15(15)   R13       15
    C15(15)   R14       10
    C15(15)   R15       11
    C15(15)   R17       19
    C15(15)   R19       1
    C15(15)   R21       3
    C15(15)   R24       10
    C16(19)   OBJ       -8
    C16(19)   R0        -5
    C16(19)   R1        -6
    C16(19)   R2        10
    C16(19)   R5        14
    C16(19)   R6        16
    C16(19)   R7        1
    C16(19)   R9        2
    C16(19)   R10       15
    C16(19)   R11       3
    C16(19)   R14       17
    C16(19)   R15       2
    C16(19)   R16       3
    C16(19)   R17       16
    C16(19)   R19       16
    C16(19)   R20       7
    C16(19)   R21       6
    C16(19)   R22       16
    C16(19)   R24       12
    C16(19)   R25       15
    C17(17)   OBJ       -8
    C17(17)   R0        2
    C17(17)   R1        5
    C17(17)   R3        14
    C17(17)   R5        19
    C17(17)   R6        5
    C17(17)   R7        19
    C17(17)   R9        16
    C17(17)   R10       -1
    C17(17)   R11       15
    C17(17)   R13       9
    C17(17)   R14       -1
    C17(17)   R17       5
    C17(17)   R18       19
    C17(17)   R19       6
    C17(17)   R22       11
    C17(17)   R23       13
    C17(17)   R25       9
    C18(17)   OBJ       3
    C18(17)   R0        -1
    C18(17)   R1        -8
    C18(17)   R2        14
    C18(17)   R4        7
    C18(17)   R5        12
    C18(17)   R6        15
    C18(17)   R7        19
    C18(17)   R9        8
    C18(17)   R10       10
    C18(17)   R12       18
    C18(17)   R13       16
    C18(17)   R14       7
    C18(17)   R17       9
    C18(17)   R19       10
    C18(17)   R20       15
    C18(17)   R21       13
    C18(17)   R25       12
    C19(19)   OBJ       7
    C19(19)   R0        -2
    C19(19)   R1        -4
    C19(19)   R3        16
    C19(19)   R5        10
    C19(19)   R6        5
    C19(19)   R8        10
    C19(19)   R9        9
    C19(19)   R10       17
    C19(19)   R11       13
    C19(19)   R12       1
    C19(19)   R14       15
    C19(19)   R15       14
    C19(19)   R16       19
    C19(19)   R18       16
    C19(19)   R19       4
    C19(19)   R20       10
    C19(19)   R22       10
    C19(19)   R24       2
    C19(19)   R25       5
    C20(16)   OBJ       2
    C20(16)   R0        6
    C20(16)   R1        -6
    C20(16)   R2        10
    C20(16)   R3        16
    C20(16)   R4        9
    C20(16)   R5        19
    C20(16)   R9        14
    C20(16)   R10       2
    C20(16)   R15       10
    C20(16)   R18       8
    C20(16)   R19       2
    C20(16)   R20       2
    C20(16)   R22       15
    C20(16)   R23       8
    C20(16)   R24       11
    C20(16)   R25       8
    C21(19)   OBJ       -3
    C21(19)   R0        1
    C21(19)   R1        2
    C21(19)   R2        19
    C21(19)   R4        13
    C21(19)   R5        8
    C21(19)   R6        9
    C21(19)   R7        2
    C21(19)   R8        10
    C21(19)   R9        18
    C21(19)   R11       1
    C21(19)   R15       18
    C21(19)   R16       16
    C21(19)   R17       15
    C21(19)   R18       11
    C21(19)   R19       17
    C21(19)   R20       19
    C21(19)   R23       2
    C21(19)   R24       19
    C21(19)   R25       7
    C22(19)   OBJ       -3
    C22(19)   R0        5
    C22(19)   R1        6
    C22(19)   R2        4
    C22(19)   R4        11
    C22(19)   R5        5
    C22(19)   R6        11
    C22(19)   R9        2
    C22(19)   R11       13
    C22(19)   R12       5
    C22(19)   R14       19
    C22(19)   R15       7
    C22(19)   R16       7
    C22(19)   R17       12
    C22(19)   R18       11
    C22(19)   R21       13
    C22(19)   R22       16
    C22(19)   R23       15
    C22(19)   R24       15
    C22(19)   R25       15
    C23(20)   OBJ       -9
    C23(20)   R0        -3
    C23(20)   R1        3
    C23(20)   R3        3
    C23(20)   R5        8
    C23(20)   R6        18
    C23(20)   R7        8
    C23(20)   R8        16
    C23(20)   R9        13
    C23(20)   R11       6
    C23(20)   R12       19
    C23(20)   R13       14
    C23(20)   R16       11
    C23(20)   R17       10
    C23(20)   R18       6
    C23(20)   R19       7
    C23(20)   R21       9
    C23(20)   R22       6
    C23(20)   R23       -1
    C23(20)   R24       3
    C23(20)   R25       2
    C24(17)   OBJ       4
    C24(17)   R0        -6
    C24(17)   R1        7
    C24(17)   R3        2
    C24(17)   R4        7
    C24(17)   R5        16
    C24(17)   R12       18
    C24(17)   R13       15
    C24(17)   R14       9
    C24(17)   R16       17
    C24(17)   R17       4
    C24(17)   R18       15
    C24(17)   R19       4
    C24(17)   R20       2
    C24(17)   R22       -1
    C24(17)   R23       6
    C24(17)   R24       7
    C24(17)   R25       3
    C25(1)    R2        1
    C26(1)    R3        1
    C27(1)    R4        1
    C28(1)    R5        1
    C29(1)    R6        1
    C30(1)    R7        1
    C31(1)    R8        1
    C32(1)    R9        1
    C33(1)    R10       1
    C34(1)    R11       1
    C35(1)    R12       1
    C36(1)    R13       1
    C37(1)    R14       1
    C38(1)    R15       1
    C39(1)    R16       1
    C40(1)    R17       1
    C41(1)    R18       1
    C42(1)    R19       1
    C43(1)    R20       1
    C44(1)    R21       1
    C45(1)    R22       1
    C46(1)    R23       1
    C47(1)    R24       1
    C48(1)    R25       1
    C49(1)    R26       1
RHS
    RHS1      R0        2.0592857142857122e+02
    RHS1      R1        -2.0428571428571402e+02
    RHS1      R2        98
    RHS1      R3        78
    RHS1      R4        60
    RHS1      R5        54
    RHS1      R6        86
    RHS1      R7        99
    RHS1      R8        76
    RHS1      R9        74
    RHS1      R10       80
    RHS1      R11       53
    RHS1      R12       91
    RHS1      R13       68
    RHS1      R14       91
    RHS1      R15       75
    RHS1      R16       89
    RHS1      R17       64
    RHS1      R18       67
    RHS1      R19       83
    RHS1      R20       80
    RHS1      R21       62
    RHS1      R22       53
    RHS1      R23       52
    RHS1      R24       86
    RHS1      R25       89
    RHS1      R26       4
BOUNDS
 UP BND1      I0(11)    1
 UP BND1      I1(7)     1
 UP BND1      I2(11)    1
 UP BND1      I3(11)    1
 UP BND1      I4(10)    1
 UP BND1      I5(12)    1
 UP BND1      I6(9)     1
 UP BND1      I7(13)    1
 UP BND1      I8(13)    1
 UP BND1      I9(10)    1
 UP BND1      I10(11)   1
 UP BND1      I11(12)   1
ENDATA
